# 2.7.7.13_group0_PF00483_30-85~2.7.7.24_group0_PF00483_30-85.sdpA
# All alignment positions within 5\AA of a ligand/cat site passing the sdpA filter.  Column indices start with 0.
5
22
50
78
84
106
107
108
171
194
200
